p cnf 386 460
18 16 8 21 22 0
18 16 8 21 -22 0
18 16 8 -21 23 0
18 16 8 -21 -23 0
20 -18 -3 24 25 0
20 -18 -3 24 -25 0
20 -18 -3 -24 26 0
20 -18 -3 -24 -26 0
11 -1 8 27 28 0
11 -1 8 27 -28 0
11 -1 8 -27 29 0
11 -1 8 -27 -29 0
7 -10 16 30 31 0
7 -10 16 30 -31 0
7 -10 16 -30 32 0
7 -10 16 -30 -32 0
-11 9 -1 33 34 0
-11 9 -1 33 -34 0
-11 9 -1 -33 35 0
-11 9 -1 -33 -35 0
-3 -12 -1 36 37 0
-3 -12 -1 36 -37 0
-3 -12 -1 -36 38 0
-3 -12 -1 -36 -38 0
-14 16 -11 39 40 0
-14 16 -11 39 -40 0
-14 16 -11 -39 41 0
-14 16 -11 -39 -41 0
19 14 -5 42 43 0
19 14 -5 42 -43 0
19 14 -5 -42 44 0
19 14 -5 -42 -44 0
-17 16 -7 45 46 0
-17 16 -7 45 -46 0
-17 16 -7 -45 47 0
-17 16 -7 -45 -47 0
-5 15 -16 48 49 0
-5 15 -16 48 -49 0
-5 15 -16 -48 50 0
-5 15 -16 -48 -50 0
-3 13 -12 51 52 0
-3 13 -12 51 -52 0
-3 13 -12 -51 53 0
-3 13 -12 -51 -53 0
-6 19 -2 54 55 0
-6 19 -2 54 -55 0
-6 19 -2 -54 56 0
-6 19 -2 -54 -56 0
15 -19 17 57 58 0
15 -19 17 57 -58 0
15 -19 17 -57 59 0
15 -19 17 -57 -59 0
18 -16 4 60 61 0
18 -16 4 60 -61 0
18 -16 4 -60 62 0
18 -16 4 -60 -62 0
-20 -16 4 63 64 0
-20 -16 4 63 -64 0
-20 -16 4 -63 65 0
-20 -16 4 -63 -65 0
-6 -19 -17 66 67 0
-6 -19 -17 66 -67 0
-6 -19 -17 -66 68 0
-6 -19 -17 -66 -68 0
8 -17 19 69 70 0
8 -17 19 69 -70 0
8 -17 19 -69 71 0
8 -17 19 -69 -71 0
-2 8 3 72 73 0
-2 8 3 72 -73 0
-2 8 3 -72 74 0
-2 8 3 -72 -74 0
-7 18 -10 75 76 0
-7 18 -10 75 -76 0
-7 18 -10 -75 77 0
-7 18 -10 -75 -77 0
10 5 2 78 79 0
10 5 2 78 -79 0
10 5 2 -78 80 0
10 5 2 -78 -80 0
11 19 3 81 82 0
11 19 3 81 -82 0
11 19 3 -81 83 0
11 19 3 -81 -83 0
16 -5 1 84 85 0
16 -5 1 84 -85 0
16 -5 1 -84 86 0
16 -5 1 -84 -86 0
-7 6 -5 87 88 0
-7 6 -5 87 -88 0
-7 6 -5 -87 89 0
-7 6 -5 -87 -89 0
-1 -7 12 90 91 0
-1 -7 12 90 -91 0
-1 -7 12 -90 92 0
-1 -7 12 -90 -92 0
-20 1 -7 93 94 0
-20 1 -7 93 -94 0
-20 1 -7 -93 95 0
-20 1 -7 -93 -95 0
18 -9 -5 96 97 0
18 -9 -5 96 -97 0
18 -9 -5 -96 98 0
18 -9 -5 -96 -98 0
-12 -5 -10 99 100 0
-12 -5 -10 99 -100 0
-12 -5 -10 -99 101 0
-12 -5 -10 -99 -101 0
-3 16 9 102 103 0
-3 16 9 102 -103 0
-3 16 9 -102 104 0
-3 16 9 -102 -104 0
-18 8 1 105 106 0
-18 8 1 105 -106 0
-18 8 1 -105 107 0
-18 8 1 -105 -107 0
-12 -8 9 108 109 0
-12 -8 9 108 -109 0
-12 -8 9 -108 110 0
-12 -8 9 -108 -110 0
-9 4 16 111 112 0
-9 4 16 111 -112 0
-9 4 16 -111 113 0
-9 4 16 -111 -113 0
5 13 -17 114 115 0
5 13 -17 114 -115 0
5 13 -17 -114 116 0
5 13 -17 -114 -116 0
-3 20 19 117 118 0
-3 20 19 117 -118 0
-3 20 19 -117 119 0
-3 20 19 -117 -119 0
11 14 -9 120 121 0
11 14 -9 120 -121 0
11 14 -9 -120 122 0
11 14 -9 -120 -122 0
15 9 20 123 124 0
15 9 20 123 -124 0
15 9 20 -123 125 0
15 9 20 -123 -125 0
-15 -6 13 126 127 0
-15 -6 13 126 -127 0
-15 -6 13 -126 128 0
-15 -6 13 -126 -128 0
-18 5 -14 129 130 0
-18 5 -14 129 -130 0
-18 5 -14 -129 131 0
-18 5 -14 -129 -131 0
5 -7 17 132 133 0
5 -7 17 132 -133 0
5 -7 17 -132 134 0
5 -7 17 -132 -134 0
12 -11 -17 135 136 0
12 -11 -17 135 -136 0
12 -11 -17 -135 137 0
12 -11 -17 -135 -137 0
-12 -8 5 138 139 0
-12 -8 5 138 -139 0
-12 -8 5 -138 140 0
-12 -8 5 -138 -140 0
15 -8 -13 141 142 0
15 -8 -13 141 -142 0
15 -8 -13 -141 143 0
15 -8 -13 -141 -143 0
9 16 17 144 145 0
9 16 17 144 -145 0
9 16 17 -144 146 0
9 16 17 -144 -146 0
-20 -15 8 147 148 0
-20 -15 8 147 -148 0
-20 -15 8 -147 149 0
-20 -15 8 -147 -149 0
-20 10 -17 150 151 0
-20 10 -17 150 -151 0
-20 10 -17 -150 152 0
-20 10 -17 -150 -152 0
-13 -2 -18 153 154 0
-13 -2 -18 153 -154 0
-13 -2 -18 -153 155 0
-13 -2 -18 -153 -155 0
-5 -7 -19 156 157 0
-5 -7 -19 156 -157 0
-5 -7 -19 -156 158 0
-5 -7 -19 -156 -158 0
10 2 13 159 160 0
10 2 13 159 -160 0
10 2 13 -159 161 0
10 2 13 -159 -161 0
-7 4 -17 162 163 0
-7 4 -17 162 -163 0
-7 4 -17 -162 164 0
-7 4 -17 -162 -164 0
-20 -5 17 165 166 0
-20 -5 17 165 -166 0
-20 -5 17 -165 167 0
-20 -5 17 -165 -167 0
8 16 -5 168 169 0
8 16 -5 168 -169 0
8 16 -5 -168 170 0
8 16 -5 -168 -170 0
9 14 -15 171 172 0
9 14 -15 171 -172 0
9 14 -15 -171 173 0
9 14 -15 -171 -173 0
-15 -9 4 174 175 0
-15 -9 4 174 -175 0
-15 -9 4 -174 176 0
-15 -9 4 -174 -176 0
-6 -16 -3 177 178 0
-6 -16 -3 177 -178 0
-6 -16 -3 -177 179 0
-6 -16 -3 -177 -179 0
-20 15 -2 180 181 0
-20 15 -2 180 -181 0
-20 15 -2 -180 182 0
-20 15 -2 -180 -182 0
4 17 -12 183 184 0
4 17 -12 183 -184 0
4 17 -12 -183 185 0
4 17 -12 -183 -185 0
-4 -9 -13 186 187 0
-4 -9 -13 186 -187 0
-4 -9 -13 -186 188 0
-4 -9 -13 -186 -188 0
-11 9 -7 189 190 0
-11 9 -7 189 -190 0
-11 9 -7 -189 191 0
-11 9 -7 -189 -191 0
-1 14 3 192 193 0
-1 14 3 192 -193 0
-1 14 3 -192 194 0
-1 14 3 -192 -194 0
13 -5 -3 195 196 0
13 -5 -3 195 -196 0
13 -5 -3 -195 197 0
13 -5 -3 -195 -197 0
-12 11 20 198 199 0
-12 11 20 198 -199 0
-12 11 20 -198 200 0
-12 11 20 -198 -200 0
-1 -2 15 201 202 0
-1 -2 15 201 -202 0
-1 -2 15 -201 203 0
-1 -2 15 -201 -203 0
7 11 -5 204 205 0
7 11 -5 204 -205 0
7 11 -5 -204 206 0
7 11 -5 -204 -206 0
10 -18 -8 207 208 0
10 -18 -8 207 -208 0
10 -18 -8 -207 209 0
10 -18 -8 -207 -209 0
-13 -19 -6 210 211 0
-13 -19 -6 210 -211 0
-13 -19 -6 -210 212 0
-13 -19 -6 -210 -212 0
-2 -11 8 213 214 0
-2 -11 8 213 -214 0
-2 -11 8 -213 215 0
-2 -11 8 -213 -215 0
-13 16 2 216 217 0
-13 16 2 216 -217 0
-13 16 2 -216 218 0
-13 16 2 -216 -218 0
19 14 -15 219 220 0
19 14 -15 219 -220 0
19 14 -15 -219 221 0
19 14 -15 -219 -221 0
3 -10 17 222 223 0
3 -10 17 222 -223 0
3 -10 17 -222 224 0
3 -10 17 -222 -224 0
2 12 -6 225 226 0
2 12 -6 225 -226 0
2 12 -6 -225 227 0
2 12 -6 -225 -227 0
-4 -7 -11 228 229 0
-4 -7 -11 228 -229 0
-4 -7 -11 -228 230 0
-4 -7 -11 -228 -230 0
-8 16 20 231 232 0
-8 16 20 231 -232 0
-8 16 20 -231 233 0
-8 16 20 -231 -233 0
-19 -18 3 234 235 0
-19 -18 3 234 -235 0
-19 -18 3 -234 236 0
-19 -18 3 -234 -236 0
7 14 -15 237 238 0
7 14 -15 237 -238 0
7 14 -15 -237 239 0
7 14 -15 -237 -239 0
-17 6 4 240 241 0
-17 6 4 240 -241 0
-17 6 4 -240 242 0
-17 6 4 -240 -242 0
-3 8 -18 243 244 0
-3 8 -18 243 -244 0
-3 8 -18 -243 245 0
-3 8 -18 -243 -245 0
5 3 -16 246 247 0
5 3 -16 246 -247 0
5 3 -16 -246 248 0
5 3 -16 -246 -248 0
4 -18 -6 249 250 0
4 -18 -6 249 -250 0
4 -18 -6 -249 251 0
4 -18 -6 -249 -251 0
-8 9 5 252 253 0
-8 9 5 252 -253 0
-8 9 5 -252 254 0
-8 9 5 -252 -254 0
11 -15 -4 255 256 0
11 -15 -4 255 -256 0
11 -15 -4 -255 257 0
11 -15 -4 -255 -257 0
12 3 8 258 259 0
12 3 8 258 -259 0
12 3 8 -258 260 0
12 3 8 -258 -260 0
-14 -13 -19 261 262 0
-14 -13 -19 261 -262 0
-14 -13 -19 -261 263 0
-14 -13 -19 -261 -263 0
2 3 -16 264 265 0
2 3 -16 264 -265 0
2 3 -16 -264 266 0
2 3 -16 -264 -266 0
18 12 20 267 268 0
18 12 20 267 -268 0
18 12 20 -267 269 0
18 12 20 -267 -269 0
4 16 -3 270 271 0
4 16 -3 270 -271 0
4 16 -3 -270 272 0
4 16 -3 -270 -272 0
18 17 -2 273 274 0
18 17 -2 273 -274 0
18 17 -2 -273 275 0
18 17 -2 -273 -275 0
8 -20 4 276 277 0
8 -20 4 276 -277 0
8 -20 4 -276 278 0
8 -20 4 -276 -278 0
-3 20 6 279 280 0
-3 20 6 279 -280 0
-3 20 6 -279 281 0
-3 20 6 -279 -281 0
9 6 1 282 283 0
9 6 1 282 -283 0
9 6 1 -282 284 0
9 6 1 -282 -284 0
-17 -12 2 285 286 0
-17 -12 2 285 -286 0
-17 -12 2 -285 287 0
-17 -12 2 -285 -287 0
-19 -16 3 288 289 0
-19 -16 3 288 -289 0
-19 -16 3 -288 290 0
-19 -16 3 -288 -290 0
-11 -7 9 291 292 0
-11 -7 9 291 -292 0
-11 -7 9 -291 293 0
-11 -7 9 -291 -293 0
294 295 297 301 309 0
294 295 297 301 -309 0
294 295 297 -301 310 0
294 295 297 -301 -310 0
294 295 -297 302 311 0
294 295 -297 302 -311 0
294 295 -297 -302 312 0
294 295 -297 -302 -312 0
294 -295 298 303 313 0
294 -295 298 303 -313 0
294 -295 298 -303 314 0
294 -295 298 -303 -314 0
294 -295 -298 304 315 0
294 -295 -298 304 -315 0
294 -295 -298 -304 316 0
294 -295 -298 -304 -316 0
-294 296 299 305 317 0
-294 296 299 305 -317 0
-294 296 299 -305 318 0
-294 296 299 -305 -318 0
-294 296 -299 306 319 0
-294 296 -299 306 -319 0
-294 296 -299 -306 320 0
-294 296 -299 -306 -320 0
-294 -296 300 307 321 0
-294 -296 300 307 -321 0
-294 -296 300 -307 322 0
-294 -296 300 -307 -322 0
-294 -296 -300 308 323 0
-294 -296 -300 308 -323 0
-294 -296 -300 -308 324 0
-294 -296 -300 -308 -324 0
325 326 328 332 340 0
325 326 328 332 -340 0
325 326 328 -332 341 0
325 326 328 -332 -341 0
325 326 -328 333 342 0
325 326 -328 333 -342 0
325 326 -328 -333 343 0
325 326 -328 -333 -343 0
325 -326 329 334 344 0
325 -326 329 334 -344 0
325 -326 329 -334 345 0
325 -326 329 -334 -345 0
325 -326 -329 335 346 0
325 -326 -329 335 -346 0
325 -326 -329 -335 347 0
325 -326 -329 -335 -347 0
-325 327 330 336 348 0
-325 327 330 336 -348 0
-325 327 330 -336 349 0
-325 327 330 -336 -349 0
-325 327 -330 337 350 0
-325 327 -330 337 -350 0
-325 327 -330 -337 351 0
-325 327 -330 -337 -351 0
-325 -327 331 338 352 0
-325 -327 331 338 -352 0
-325 -327 331 -338 353 0
-325 -327 331 -338 -353 0
-325 -327 -331 339 354 0
-325 -327 -331 339 -354 0
-325 -327 -331 -339 355 0
-325 -327 -331 -339 -355 0
356 357 359 363 371 0
356 357 359 363 -371 0
356 357 359 -363 372 0
356 357 359 -363 -372 0
356 357 -359 364 373 0
356 357 -359 364 -373 0
356 357 -359 -364 374 0
356 357 -359 -364 -374 0
356 -357 360 365 375 0
356 -357 360 365 -375 0
356 -357 360 -365 376 0
356 -357 360 -365 -376 0
356 -357 -360 366 377 0
356 -357 -360 366 -377 0
356 -357 -360 -366 378 0
356 -357 -360 -366 -378 0
-356 358 361 367 379 0
-356 358 361 367 -379 0
-356 358 361 -367 380 0
-356 358 361 -367 -380 0
-356 358 -361 368 381 0
-356 358 -361 368 -381 0
-356 358 -361 -368 382 0
-356 358 -361 -368 -382 0
-356 -358 362 369 383 0
-356 -358 362 369 -383 0
-356 -358 362 -369 384 0
-356 -358 362 -369 -384 0
-356 -358 -362 370 385 0
-356 -358 -362 370 -385 0
-356 -358 -362 -370 386 0
-356 -358 -362 -370 -386 0

